Reading model...
...model read.
creating competitive generators file...
...competitive generators recorded.
Loading data...
.. real-time data read.
Compiling instance...
...instance created.
Creating Offer Mitigation (model will solve as dispatch if TRUE)...
...storage offer mitigation file created
Converting model to MPEC...
...converted
NOTE: initial MIP solve with only storage competitive to get feasible solution
Solving...

Welcome to IBM(R) ILOG(R) CPLEX(R) Interactive Optimizer 12.9.0.0
  with Simplex, Mixed Integer & Barrier Optimizers
5725-A06 5725-A29 5724-Y48 5724-Y49 5724-Y54 5724-Y55 5655-Y21
Copyright IBM Corp. 1988, 2019.  All Rights Reserved.

Type 'help' for a list of available commands.
Type 'help' followed by a command name for more
information on commands.

CPLEX> Logfile 'cplex.log' closed.
Logfile 'C:\Users\llavin\Desktop\test826\logs\tmprxjgv10n.cplex.log' open.
CPLEX> New value for parallel optimization mode: -1
CPLEX> New value for mixed integer optimality gap tolerance: 0.02
CPLEX> New value for integrality tolerance: 1e-12
CPLEX> New value for deterministic time limit in ticks: 45000
CPLEX> Problem 'C:\Users\llavin\Desktop\test826\logs\tmp26uf86yz.pyomo.lp' read.
Read time = 0.50 sec. (28.93 ticks)
CPLEX> Problem name         : C:\Users\llavin\Desktop\test826\logs\tmp26uf86yz.pyomo.lp
Objective sense      : Maximize
Variables            :  107803  [Nneg: 1,  Box: 44062,  Free: 8928,
                                 Binary: 54812]
Objective nonzeros   :   18392
Linear constraints   :  246963  [Less: 82886,  Greater: 118460,  Equal: 45617]
  Nonzeros           :  621657
  RHS nonzeros       :  135933

Variables            : Min LB: -5000.000        Max UB: 1000000.       
Objective nonzeros   : Min   : 0.001000000      Max   : 208.3333       
Linear constraints   :
  Nonzeros           : Min   : 0.001000000      Max   : 1000000.       
  RHS nonzeros       : Min   : 0.001000000      Max   : 1000000.       
CPLEX> CPXPARAM_Parallel                                -1
CPXPARAM_DetTimeLimit                            45000
CPXPARAM_MIP_Tolerances_MIPGap                   0.02
CPXPARAM_MIP_Tolerances_Integrality              9.9999999999999998e-13
Tried aggregator 3 times.
MIP Presolve eliminated 176745 rows and 37393 columns.
MIP Presolve added 7036 rows and 0 columns.
MIP Presolve modified 52152 coefficients.
Aggregator did 25875 substitutions.
Reduced MIP has 51379 rows, 43677 columns, and 160139 nonzeros.
Reduced MIP has 17258 binaries, 0 generals, 0 SOSs, and 0 indicators.
Presolve time = 0.59 sec. (393.28 ticks)
Probing fixed 872 vars, tightened 11596 bounds.
Probing time = 0.39 sec. (15.80 ticks)
Tried aggregator 2 times.
MIP Presolve eliminated 1940 rows and 1751 columns.
MIP Presolve modified 11356 coefficients.
Aggregator did 80 substitutions.
Reduced MIP has 49359 rows, 41846 columns, and 154233 nonzeros.
Reduced MIP has 16386 binaries, 0 generals, 0 SOSs, and 0 indicators.
Presolve time = 0.25 sec. (238.84 ticks)
Probing fixed 3 vars, tightened 1148 bounds.
Probing time = 0.53 sec. (20.03 ticks)
Clique table members: 84388.
MIP emphasis: balance optimality and feasibility.
MIP search method: dynamic search.
Parallel mode: opportunistic, using up to 32 threads.
Root relaxation solution time = 1.17 sec. (2211.12 ticks)

        Nodes                                         Cuts/
   Node  Left     Objective  IInf  Best Integer    Best Bound    ItCnt     Gap

      0     0        0.0000   594                      0.0000    12042         
*     0     0      integral     0        0.0000        0.0000    12042    0.00%
Elapsed time = 5.09 sec. (4751.73 ticks, tree = 0.01 MB, solutions = 1)

Root node processing (before b&c):
  Real time             =    5.13 sec. (4755.69 ticks)
Parallel b&c, 32 threads:
  Real time             =    0.00 sec. (0.00 ticks)
  Sync time (average)   =    0.00 sec.
  Wait time (average)   =    0.00 sec.
                          ------------
Total (root+branch&cut) =    5.13 sec. (4755.69 ticks)

Solution pool: 1 solution saved.

MIP - Integer optimal solution:  Objective =  2.8737758839e-09
Solution time =    5.14 sec.  Iterations = 12042  Nodes = 0
Deterministic time = 4756.00 ticks  (925.11 ticks/sec)

CPLEX> Incumbent solution written to file 'C:\Users\llavin\Desktop\test826\logs\tmpps1pfh2v.cplex.sol'.
CPLEX> NOTE: no warmstart specified for MIP iteration, default behavior is true
NOTE: resolving with all competitive generators using storage-only solution to warmstart
Solving...

Welcome to IBM(R) ILOG(R) CPLEX(R) Interactive Optimizer 12.9.0.0
  with Simplex, Mixed Integer & Barrier Optimizers
5725-A06 5725-A29 5724-Y48 5724-Y49 5724-Y54 5724-Y55 5655-Y21
Copyright IBM Corp. 1988, 2019.  All Rights Reserved.

Type 'help' for a list of available commands.
Type 'help' followed by a command name for more
information on commands.

CPLEX> Logfile 'cplex.log' closed.
Logfile 'C:\Users\llavin\Desktop\test826\logs\tmpo654_drb.cplex.log' open.
CPLEX> New value for parallel optimization mode: -1
CPLEX> New value for mixed integer optimality gap tolerance: 0.02
CPLEX> New value for integrality tolerance: 1e-12
CPLEX> New value for deterministic time limit in ticks: 45000
CPLEX> Problem 'C:\Users\llavin\Desktop\test826\logs\tmp3owqmfr0.pyomo.lp' read.
Read time = 0.48 sec. (28.97 ticks)
CPLEX> MIP start file 'C:\Users\llavin\Desktop\test826\logs\tmp8ymt7292.cplex.mst' read.
CPLEX> Problem name         : C:\Users\llavin\Desktop\test826\logs\tmp3owqmfr0.pyomo.lp
Objective sense      : Maximize
Variables            :  109243  [Nneg: 1,  Box: 45502,  Free: 8928,
                                 Binary: 54812]
Objective nonzeros   :   19785
Linear constraints   :  246963  [Less: 82886,  Greater: 118460,  Equal: 45617]
  Nonzeros           :  621657
  RHS nonzeros       :  135933

Variables            : Min LB: -5000.000        Max UB: 1000000.       
Objective nonzeros   : Min   : 0.001000000      Max   : 208.3333       
Linear constraints   :
  Nonzeros           : Min   : 0.001000000      Max   : 1000000.       
  RHS nonzeros       : Min   : 0.001000000      Max   : 1000000.       
CPLEX> CPXPARAM_Parallel                                -1
CPXPARAM_DetTimeLimit                            45000
CPXPARAM_MIP_Tolerances_MIPGap                   0.02
CPXPARAM_MIP_Tolerances_Integrality              9.9999999999999998e-13
Warning:  No solution found from 1 MIP starts.
Retaining values of one MIP start for possible repair.
Tried aggregator 3 times.
MIP Presolve eliminated 176745 rows and 38833 columns.
MIP Presolve added 7036 rows and 0 columns.
MIP Presolve modified 52152 coefficients.
Aggregator did 25875 substitutions.
Reduced MIP has 51379 rows, 43677 columns, and 160139 nonzeros.
Reduced MIP has 17258 binaries, 0 generals, 0 SOSs, and 0 indicators.
Presolve time = 0.58 sec. (394.07 ticks)
Probing fixed 872 vars, tightened 11596 bounds.
Probing time = 0.38 sec. (15.80 ticks)
Tried aggregator 2 times.
MIP Presolve eliminated 1940 rows and 1751 columns.
MIP Presolve modified 11356 coefficients.
Aggregator did 80 substitutions.
Reduced MIP has 49359 rows, 41846 columns, and 154233 nonzeros.
Reduced MIP has 16386 binaries, 0 generals, 0 SOSs, and 0 indicators.
Presolve time = 0.25 sec. (239.02 ticks)
Probing fixed 3 vars, tightened 1148 bounds.
Probing time = 0.56 sec. (20.03 ticks)
Clique table members: 84388.
MIP emphasis: balance optimality and feasibility.
MIP search method: dynamic search.
Parallel mode: opportunistic, using up to 32 threads.
Root relaxation solution time = 1.16 sec. (2213.06 ticks)

        Nodes                                         Cuts/
   Node  Left     Objective  IInf  Best Integer    Best Bound    ItCnt     Gap

      0     0     1928.4283   617                   1928.4283    11787         
      0     0     1928.4283    43                    Cuts: 91    11821         
      0     0     1928.4283    45                    Cuts: 15    11833         
      0     0     1928.4283    27                     Cuts: 4    11843         
Repair heuristic found nothing.
      0    19     1653.4416    20                   Covers: 2    11947         
Elapsed time = 13.08 sec. (8998.91 ticks, tree = 0.03 MB, solutions = 0)
    218   244     1867.1126     4                   1926.7317    14403         
*   379   202      integral     0     1870.3817     1926.7317    13915    3.01%
    525    62     1916.3059    17     1870.3817     1926.0691    12383    2.98%
    862   255     1865.1313    20     1870.3817     1926.0691    14568    2.98%
   1192   249        cutoff           1870.3817     1926.0691    17654    2.98%
   1520   481     1873.4603     5     1870.3817     1926.0691    28225    2.98%
   1788   387        cutoff           1870.3817     1926.0691    26275    2.98%
   2039   492     1901.8389    12     1870.3817     1926.0691    28610    2.98%
   2435   569     1895.8363    20     1870.3817     1926.0691    30537    2.98%
   2843   856     1917.5036     4     1870.3817     1925.0616    35620    2.92%
   4436  1558     1913.5962    11     1870.3817     1920.8943    51735    2.70%
Elapsed time = 32.34 sec. (12110.38 ticks, tree = 19.33 MB, solutions = 7)
   6027  1885     1873.8217    19     1870.3817     1917.8958    58064    2.54%
   7799  2563        cutoff           1870.3817     1917.1589    73787    2.50%
   8627  3288        cutoff           1870.3817     1916.7668    99912    2.48%
   8707    16     1919.3777    14     1870.3817     1916.7668    99986    2.48%
   8733    51     1918.8764    25     1870.3817     1916.7668   100335    2.48%
   8770    57     1914.8279    18     1870.3817     1916.7668   100642    2.48%

Clique cuts applied:  1
Cover cuts applied:  3
Implied bound cuts applied:  1
Flow cuts applied:  15
Mixed integer rounding cuts applied:  10
Gomory fractional cuts applied:  14

Root node processing (before b&c):
  Real time             =   10.36 sec. (8953.99 ticks)
Parallel b&c, 32 threads:
  Real time             =   51.38 sec. (16151.43 ticks)
  Sync time (average)   =    4.95 sec.
  Wait time (average)   =    0.29 sec.
                          ------------
Total (root+branch&cut) =   61.73 sec. (25105.43 ticks)

Solution pool: 7 solutions saved.

MIP - Integer optimal, tolerance (0.02/1e-06):  Objective =  1.8703816668e+03
Current MIP best bound =  1.9073729959e+03 (gap = 36.9913, 1.98%)
Solution time =   61.75 sec.  Iterations = 100939  Nodes = 8775 (102)
Deterministic time = 25105.74 ticks  (406.57 ticks/sec)

CPLEX> Incumbent solution written to file 'C:\Users\llavin\Desktop\test826\logs\tmpub6hyxoi.cplex.sol'.
CPLEX> Exporting results... 
